
Gurobi 7.5.2 (linux64) logging started Sat Jun 23 17:32:10 2018

Changed value of parameter LogFile to result/ilp/simNo_6-n_100-m_40-s_7-minVAF_0.05-cov_2000-k_2-fn_0.10-fp_0.0001-na_0.15.ILP.gurobiSolverLog
   Prev: gurobi.log  Default: 
Changed value of parameter TimeLimit to 86400.0
   Prev: 1e+100  Min: 0.0  Max: 1e+100  Default: 1e+100
Optimize a model with 1265601 rows, 330440 columns and 3489120 nonzeros
Variable types: 0 continuous, 330440 integer (330440 binary)
Coefficient statistics:
  Matrix range     [8e-04, 3e+00]
  Objective range  [5e-01, 9e+00]
  Bounds range     [1e+00, 1e+00]
  RHS range        [8e-02, 2e+00]
Found heuristic solution: objective -11164.16187
Presolve removed 382878 rows and 226477 columns (presolve time = 5s) ...
Presolve removed 395538 rows and 226477 columns (presolve time = 10s) ...
Presolve removed 395538 rows and 226477 columns (presolve time = 15s) ...
Presolve removed 395538 rows and 226477 columns (presolve time = 20s) ...
Presolve removed 395538 rows and 226477 columns (presolve time = 25s) ...
Presolve removed 395538 rows and 226477 columns (presolve time = 30s) ...
Presolve removed 395538 rows and 226477 columns (presolve time = 38s) ...
Presolve removed 395538 rows and 226477 columns (presolve time = 40s) ...
Presolve removed 395538 rows and 226477 columns
Presolve time: 40.11s
Presolved: 870063 rows, 103963 columns, 2420435 nonzeros
Variable types: 0 continuous, 103963 integer (103963 binary)
Presolved: 103963 rows, 974026 columns, 2524398 nonzeros

Presolve removed 103963 rows and 974026 columns

Root simplex log...

Iteration    Objective       Primal Inf.    Dual Inf.      Time
       0    1.6033884e+01   0.000000e+00   7.764000e+04     51s
   10570   -1.8517071e+02   0.000000e+00   2.806133e+04     55s
   16273   -2.2163330e+02   0.000000e+00   0.000000e+00     59s
   16273   -2.2163330e+02   0.000000e+00   0.000000e+00     62s

Root relaxation: objective -2.216333e+02, 16273 iterations, 18.72 seconds
Total elapsed time = 90.09s
Total elapsed time = 100.12s

    Nodes    |    Current Node    |     Objective Bounds      |     Work
 Expl Unexpl |  Obj  Depth IntInf | Incumbent    BestBd   Gap | It/Node Time

     0     0 -221.63330    0  295 -11164.162 -221.63330  98.0%     -  110s
H    0     0                    -237.9231441 -221.63330  6.85%     -  117s
     0     0 -225.15064    0  220 -237.92314 -225.15064  5.37%     -  143s
H    0     0                    -237.7343447 -225.15064  5.29%     -  155s
     0     0 -226.47006    0  232 -237.73434 -226.47006  4.74%     -  176s
H    0     0                    -233.5260465 -226.47006  3.02%     -  184s
     0     0 -227.62687    0  232 -233.52605 -227.62687  2.53%     -  200s
     0     0 -228.05334    0  310 -233.52605 -228.05334  2.34%     -  220s
     0     0 -228.05334    0  313 -233.52605 -228.05334  2.34%     -  232s
     0     0 -229.99663    0  261 -233.52605 -229.99663  1.51%     -  249s
     0     0 -229.99663    0  263 -233.52605 -229.99663  1.51%     -  263s
     0     0 -229.99663    0  263 -233.52605 -229.99663  1.51%     -  279s
     0     0 -229.99663    0  267 -233.52605 -229.99663  1.51%     -  291s
     0     0 -230.79344    0  131 -233.52605 -230.79344  1.17%     -  329s
     0     0 -230.99603    0  304 -233.52605 -230.99603  1.08%     -  381s
     0     0 -230.99603    0  118 -233.52605 -230.99603  1.08%     -  457s
     0     0 -230.99603    0   93 -233.52605 -230.99603  1.08%     -  460s
     0     0 -230.99603    0  133 -233.52605 -230.99603  1.08%     -  462s
     0     0 -231.21241    0   60 -233.52605 -231.21241  0.99%     -  466s
     0     0 -231.21241    0   76 -233.52605 -231.21241  0.99%     -  473s
     0     0 -231.21241    0   85 -233.52605 -231.21241  0.99%     -  474s
     0     0 -231.21241    0   57 -233.52605 -231.21241  0.99%     -  475s
     0     0 -231.81379    0   81 -233.52605 -231.81379  0.73%     -  475s
     0     0 -231.81379    0   74 -233.52605 -231.81379  0.73%     -  478s
     0     0 -231.81379    0   90 -233.52605 -231.81379  0.73%     -  478s
     0     0 -231.81379    0   80 -233.52605 -231.81379  0.73%     -  478s
     0     0 -231.81379    0   80 -233.52605 -231.81379  0.73%     -  479s
     0     0 -231.92776    0   76 -233.52605 -231.92776  0.68%     -  479s
     0     0 -231.92776    0   76 -233.52605 -231.92776  0.68%     -  479s
     0     0 -232.34093    0   81 -233.52605 -232.34093  0.51%     -  479s
     0     0 -232.38641    0   82 -233.52605 -232.38641  0.49%     -  480s
     0     0 -232.62106    0   85 -233.52605 -232.62106  0.39%     -  480s
     0     0 -232.62106    0   85 -233.52605 -232.62106  0.39%     -  480s
     0     0 -233.10707    0   59 -233.52605 -233.10707  0.18%     -  480s
     0     0 -233.10707    0   69 -233.52605 -233.10707  0.18%     -  481s
     0     0 -233.17001    0   70 -233.52605 -233.17001  0.15%     -  481s
     0     0 -233.17001    0   71 -233.52605 -233.17001  0.15%     -  481s
     0     0 -233.17001    0   82 -233.52605 -233.17001  0.15%     -  482s
     0     0 -233.17001    0   83 -233.52605 -233.17001  0.15%     -  482s
     0     0 -233.17001    0   79 -233.52605 -233.17001  0.15%     -  482s
     0     0 -233.20147    0   84 -233.52605 -233.20147  0.14%     -  483s
     0     0 -233.30770    0   86 -233.52605 -233.30770  0.09%     -  483s
     0     0 -233.30967    0   90 -233.52605 -233.30967  0.09%     -  483s
     0     0 -233.30967    0  116 -233.52605 -233.30967  0.09%     -  483s
     0     0     cutoff    0      -233.52605 -233.52605  0.00%     -  484s

Cutting planes:
  Gomory: 4
  Implied bound: 6
  Zero half: 26

Explored 1 nodes (34220 simplex iterations) in 484.28 seconds
Thread count was 1 (of 80 available processors)

Solution count 6: -233.526 -233.526 -233.526 ... -11164.2

Optimal solution found (tolerance 1.00e-04)
Best objective -2.335260465477e+02, best bound -2.335260465477e+02, gap 0.0000%
